proyfinal/src/viki/013/experimentInOfficeAgust.take6.output/acc833d0-9758-4311-94a6-808b1731df0c.als.out
Reading from standard input... Use '--help' for help.
============================[ Problem Statistics ]=============================
|                                                                             |
|  Number of variables:         87638                                         |
|  Number of clauses:          161767                                         |
|  Parse time:                   0.04 s                                       |
|                                                                             |
============================[ Search Statistics ]==============================
| Conflicts |          ORIGINAL         |          LEARNT          | Progress |
|           |    Vars  Clauses Literals |    Limit  Clauses Lit/Cl |          |
===============================================================================
|       100 |   63050   107651   269207 |    39472      100     46 | 28.056 % |
|       250 |   44009   107651   269207 |    43419      249     59 | 49.783 % |
|       475 |   44008    51128   130308 |    47761      467     39 | 49.784 % |
|       812 |   44008    51128   130308 |    52537      804     33 | 49.784 % |
|      1318 |   43977    50990   129953 |    57791     1293     29 | 49.820 % |
|      2077 |   43903    50698   129229 |    63570     2046     28 | 49.904 % |
|      3216 |   43903    50698   129229 |    69927     3185     27 | 49.904 % |
===============================================================================
restarts              : 21
conflicts             : 3868           (12006 /sec)
decisions             : 12027          (0.00 % random) (37330 /sec)
propagations          : 4638392        (14396807 /sec)
conflict literals     : 100842         (32.50 % deleted)
Memory used           : 19.72 MB
CPU time              : 0.322182 s

UNSATISFIABLE
